Optimal - objective value 55.00000000
      0 Cmax      54.9999999999996                       0
      1 C_0       18.9999999999999                       0
      2 C_1       44.9999999999998                       0
      3 C_2                    41                       0
      4 C_3       7.99999999999998                       0
      5 C_4       28.9999999999998                       0
      6 C_5       53.9999999999999                       0
      7 C_6                    18                       0
      8 C_7       54.9999999999996                       0
     10 x_0_1                   1                     528
     12 x_1_1                   1                     528
     13 x_2_0                   1                       0
     16 x_3_1                   1                     528
     18 x_4_1                   1                     528
     19 x_5_0                   1                       0
     21 x_6_0                   1                       0
     24 x_7_1                   1                     264
     26 d_0_1_1                 1                       0
     27 d_0_2_0                 1                       0
     29 d_0_3_0                 1                       0
     32 d_0_4_1                 1                     264
     33 d_0_5_0                 1                       0
     34 d_0_5_1                 1                       0
     35 d_0_6_0                 1                       0
     36 d_0_6_1                 1                       0
     37 d_0_7_0                 1                       0
     38 d_0_7_1                 1                       0
     39 d_1_2_0                 1                       0
     40 d_1_2_1                 1                       0
     47 d_1_6_0                 1                       0
     48 d_1_6_1                 1                       0
     50 d_1_7_1                 1                     264
     51 d_2_3_0                 1                       0
     52 d_2_3_1                 1                       0
     55 d_2_5_0                 1                       0
     56 d_2_5_1                 1                       0
     60 d_2_7_1                 1                       0
     61 d_3_4_0                 1                       0
     62 d_3_4_1                 1                       0
     63 d_3_5_0                 1                       0
     64 d_3_5_1                 1                       0
     65 d_3_6_0                 1                       0
     66 d_3_6_1                 1                       0
     67 d_3_7_0                 1                       0
     68 d_3_7_1                 1                       0
     71 d_4_6_0                 1                       0
     74 d_4_7_1                 1                       0
     76 d_5_6_1                 1                       0
     80 d_6_7_1                 1                       0
